14
74
18
152
27
40
37
52
122
5
159
80
15
177
175
193
108
129
69
107
71
42
103
123
120
23
15
53
0
24
34
113
53
46
14
4
97
13
70
176
137
139
26
79
4
137
87
118
171
134
78
140
14
184
24
84
81
122
132
159
169
162
45
143
13
89
196
110
62
133
107
99
78
78
149
104
64
21
139
191
60
103
149
87
123
136
186
48
102
176
152
13
142
41
63
20
125
32
79
153
